p cnf 19 15
4 6 8 9 13 -18 15 -16 17 -14 -10 -7 -5 -3 0
3 5 -16 -12 -10 0
7 -18 15 -8 -6 -4 0
17 -14 19 -12 13 15 0
1 3 8 -19 -18 -10 -7 -6 -4 -2 0
7 -16 -10 -8 -4 0
1 3 5 -16 -6 -2 0
3 9 -6 11 0
4 9 -18 15 -16 -17 -14 -10 -7 -6 -3 0
1 17 11 13 -2 0
8 -16 -12 -11 -10 -9 -7 -6 0
-14 5 9 -4 -18 0
1 7 -19 -18 -16 -2 0
2 9 11 -18 -10 -8 -6 -1 0
6 -19 -18 -16 -4 0
